Results/Experiment 1 Results/New Benchmark/RES_40/output_p1_0.75_p2_0.00_n_40_00.txt
solutions: 0 nodes: 0  modelTime: 122  solveTime: 9  totalTime: 135  modelSize: 7362  readTime: 4 matchingSize: 0
